1 1 -2 0
1 -3 2 0
1 4 -5 0
1 4 6 0
1 7 -8 0
1 -7 -2 0
1 -7 9 0
1 -7 -5 0
1 2 -10 0
1 -2 -11 0
1 -2 12 0
1 13 -14 0
1 13 15 0
1 13 -12 0
1 -16 -17 0
1 -16 -18 0
1 -16 19 0
1 -16 -20 0
1 16 -1 0
1 -6 16 0
1 -6 20 0
1 -12 -5 0
1 12 -20 0
1 -21 -9 0
1 11 22 0
1 -23 -24 0
1 23 7 0
1 9 25 0
1 9 -12 0
1 26 27 0
1 26 -15 0
1 26 7 0
1 -26 9 0
1 -26 -19 0
1 26 -11 0
1 26 28 0
1 -29 30 0
1 -29 5 0
1 29 19 0
1 31 23 0
1 31 -30 0
1 31 5 0
1 -31 -32 0
1 33 5 0
1 33 34 0
1 32 22 0
1 32 35 0
1 32 36 0
1 -32 -37 0
1 -22 -29 0
1 -22 -37 0
1 30 -11 0
1 -30 -34 0
1 -30 -38 0
1 -39 40 0
1 -39 41 0
1 -39 42 0
1 -43 -41 0
1 43 -39 0
1 44 -45 0
1 44 41 0
1 -44 -46 0
1 -8 -47 0
1 -8 46 0
1 45 48 0
1 45 49 0
1 42 -48 0
1 -42 8 0
1 -42 20 0
1 -40 -50 0
1 -40 -41 0
1 -40 51 0
1 -40 -39 0
1 41 48 0
1 -41 -43 0
1 -41 44 0
1 -20 42 0
1 18 -52 0
1 18 53 0
1 -49 47 0
1 17 54 0
1 17 -6 0
1 -55 46 0
1 55 -56 0
1 -55 -18 0
1 55 -8 0
1 -55 -49 0
1 46 -18 0
1 46 -25 0
1 -47 57 0
1 -47 58 0
1 47 -59 0
1 -47 49 0
1 -53 47 0
1 53 18 0
1 -53 58 0
1 53 -59 0
1 19 26 0
1 56 -31 0
1 -56 -2 0
1 56 -46 0
1 56 60 0
1 56 13 0
1 -25 -26 0
1 25 27 0
1 25 -10 0
1 -25 -9 0
1 -25 60 0
1 27 60 0
1 -54 -61 0
1 54 19 0
1 54 49 0
1 -54 -60 0
1 -54 -28 0
1 62 -25 0
1 63 19 0
1 63 -64 0
1 -63 65 0
1 -61 -23 0
1 -61 -9 0
1 28 -57 0
1 28 61 0
1 28 9 0
1 28 -66 0
1 -67 54 0
1 38 -67 0
1 -38 10 0
1 -10 -68 0
1 10 28 0
1 -14 -25 0
1 -14 69 0
1 -70 -27 0
1 -70 67 0
1 70 -71 0
1 66 27 0
1 -66 -68 0
1 66 -72 0
1 -66 -71 0
1 -73 10 0
1 37 -22 0
1 37 34 0
1 74 72 0
1 74 10 0
1 74 -75 0
1 69 -14 0
1 -69 76 0
1 69 77 0
1 78 -79 0
1 78 -74 0
1 -24 -23 0
1 75 80 0
1 -75 -81 0
1 -75 69 0
1 82 -74 0
1 82 37 0
1 -79 -77 0
1 83 77 0
1 -84 -24 0
1 -84 -76 0
1 84 78 0
1 85 -76 0
1 -36 -69 0
1 86 74 0
1 -86 83 0
1 77 -74 0
1 77 -87 0
1 77 -88 0
1 -76 -84 0
1 -76 79 0
1 76 74 0
1 76 -88 0
1 76 69 0
1 -89 -39 0
1 90 -91 0
1 90 -92 0
1 93 94 0
1 93 -95 0
1 96 -50 0
1 96 -52 0
1 96 89 0
1 -97 -98 0
1 -97 52 0
1 97 -90 0
1 91 -99 0
1 -100 91 0
1 52 -94 0
1 -52 101 0
1 -102 103 0
1 -102 104 0
1 -50 -97 0
1 50 105 0
1 -50 -104 0
1 105 -106 0
1 92 52 0
1 -92 -94 0
1 -94 -99 0
1 -94 -50 0
1 94 -107 0
1 94 108 0
1 -51 101 0
1 51 -109 0
1 -51 -53 0
1 -51 -105 0
1 -51 -104 0
1 -48 99 0
1 -48 -42 0
1 -59 110 0
1 -59 47 0
1 59 -111 0
1 -112 -103 0
1 112 113 0
1 -112 114 0
1 -112 105 0
1 103 -65 0
1 109 57 0
1 -109 103 0
1 109 -112 0
1 109 115 0
1 109 59 0
1 109 51 0
1 -104 -116 0
1 104 48 0
1 104 117 0
1 -104 102 0
1 -118 -119 0
1 118 102 0
1 -58 -55 0
1 58 -61 0
1 58 -106 0
1 58 111 0
1 -58 -53 0
1 57 53 0
1 57 -46 0
1 -120 -121 0
1 -120 -122 0
1 120 -123 0
1 65 -103 0
1 65 38 0
1 110 120 0
1 110 124 0
1 110 65 0
1 114 -58 0
1 114 -125 0
1 -114 124 0
1 121 57 0
1 121 -126 0
1 -121 125 0
1 -111 127 0
1 -111 128 0
1 111 129 0
1 111 58 0
1 -130 -62 0
1 130 -129 0
1 -130 122 0
1 124 60 0
1 124 -122 0
1 -124 131 0
1 72 132 0
1 72 70 0
1 72 114 0
1 72 -66 0
1 133 132 0
1 -133 134 0
1 -133 66 0
1 -135 -120 0
1 -135 133 0
1 123 120 0
1 -123 46 0
1 132 -47 0
1 -132 -136 0
1 132 -72 0
1 -132 -120 0
1 132 -122 0
1 -132 124 0
1 -122 -137 0
1 122 132 0
1 68 -82 0
1 -68 -70 0
1 -68 -10 0
1 71 -14 0
1 71 -82 0
1 71 138 0
1 139 -140 0
1 139 141 0
1 142 -135 0
1 -142 134 0
1 -142 143 0
1 142 144 0
1 -138 80 0
1 -145 -146 0
1 -145 -88 0
1 -145 -133 0
1 134 -147 0
1 -134 148 0
1 -134 -149 0
1 134 -142 0
1 -64 139 0
1 64 -68 0
1 64 134 0
1 64 150 0
1 -80 -82 0
1 80 151 0
1 80 -143 0
1 80 -77 0
1 -88 -76 0
1 88 152 0
1 88 -145 0
1 146 -138 0
1 -146 -81 0
1 146 77 0
1 146 -145 0
1 -87 153 0
1 87 -76 0
1 87 81 0
1 152 80 0
1 152 -154 0
1 -152 -87 0
1 -152 -155 0
1 -140 139 0
1 140 -156 0
1 143 157 0
1 -141 158 0
1 -141 80 0
1 -141 88 0
1 -159 -76 0
1 154 153 0
1 154 -76 0
1 154 -86 0
1 -154 -160 0
1 161 -140 0
1 -161 -162 0
1 156 163 0
1 156 -164 0
1 165 166 0
1 165 -167 0
1 168 -169 0
1 -168 -166 0
1 168 170 0
1 168 -171 0
1 -168 -172 0
1 168 -173 0
1 -81 146 0
1 81 153 0
1 81 174 0
1 81 -154 0
1 153 175 0
1 153 -174 0
1 153 171 0
1 153 -176 0
1 153 155 0
1 170 -173 0
1 172 -164 0
1 -167 -177 0
1 167 174 0
1 164 172 0
1 164 173 0
1 -177 -178 0
1 -177 156 0
1 -177 -179 0
1 -163 -167 0
1 163 -173 0
1 163 161 0
1 162 -180 0
1 162 167 0
1 -181 182 0
1 181 89 0
1 183 -184 0
1 185 182 0
1 -185 -184 0
1 -185 186 0
1 -95 -184 0
1 187 188 0
1 184 189 0
1 -184 -190 0
1 184 191 0
1 -184 181 0
1 -188 -187 0
1 -188 192 0
1 188 -193 0
1 189 194 0
1 189 -187 0
1 189 -195 0
1 191 -195 0
1 196 197 0
1 196 50 0
1 -196 -187 0
1 195 189 0
1 195 188 0
1 195 193 0
1 193 198 0
1 -193 -95 0
1 -199 198 0
1 -199 -200 0
1 199 -189 0
1 -199 -201 0
1 199 -202 0
1 199 -188 0
1 -192 196 0
1 -192 -190 0
1 -203 -197 0
1 203 99 0
1 203 97 0
1 -203 -51 0
1 99 -100 0
1 -99 200 0
1 204 195 0
1 -113 92 0
1 -205 -116 0
1 -205 -196 0
1 -205 206 0
1 -205 204 0
1 205 207 0
1 205 -203 0
1 197 116 0
1 197 113 0
1 208 201 0
1 208 203 0
1 209 99 0
1 209 210 0
1 106 -94 0
1 -106 201 0
1 116 197 0
1 -116 101 0
1 116 106 0
1 116 211 0
1 -116 -104 0
1 212 98 0
1 -212 213 0
1 -212 -118 0
1 212 -119 0
1 212 -211 0
1 -212 214 0
1 -212 -104 0
1 -211 -98 0
1 -211 -96 0
1 211 -215 0
1 211 -212 0
1 -98 131 0
1 -216 217 0
1 -216 -206 0
1 217 218 0
1 217 -119 0
1 -217 204 0
1 217 215 0
1 -129 -98 0
1 -131 107 0
1 131 -213 0
1 -131 111 0
1 128 72 0
1 128 -115 0
1 128 -219 0
1 220 -115 0
1 220 117 0
1 214 221 0
1 -214 213 0
1 214 222 0
1 214 -125 0
1 213 -221 0
1 213 -101 0
1 -213 -223 0
1 213 -129 0
1 213 125 0
1 -213 -220 0
1 -213 -212 0
1 219 -215 0
1 -219 -131 0
1 -219 -212 0
1 107 215 0
1 127 224 0
1 -127 121 0
1 127 -132 0
1 -127 225 0
1 -125 -224 0
1 125 -110 0
1 136 -115 0
1 -136 -122 0
1 136 -144 0
1 136 -117 0
1 -144 226 0
1 144 -213 0
1 -144 142 0
1 -224 103 0
1 224 -227 0
1 -224 147 0
1 224 -151 0
1 -224 228 0
1 224 149 0
1 224 125 0
1 -115 -147 0
1 -117 -227 0
1 117 -221 0
1 117 222 0
1 117 -144 0
1 117 -125 0
1 229 227 0
1 229 -230 0
1 229 127 0
1 -229 125 0
1 -229 -220 0
1 -151 -132 0
1 -151 135 0
1 149 -224 0
1 149 226 0
1 -149 -134 0
1 -149 122 0
1 -149 -231 0
1 -147 -150 0
1 -147 -232 0
1 -147 233 0
1 -150 224 0
1 -150 -234 0
1 150 232 0
1 -226 -235 0
1 226 -150 0
1 231 235 0
1 -231 -144 0
1 -126 -147 0
1 -126 -121 0
1 232 136 0
1 158 159 0
1 -158 -138 0
1 158 143 0
1 -160 -158 0
1 160 -234 0
1 -160 -228 0
1 236 -233 0
1 -157 -156 0
1 -157 -231 0
1 157 233 0
1 234 135 0
1 -234 150 0
1 234 -155 0
1 233 -174 0
1 233 -150 0
1 233 -123 0
1 -237 238 0
1 237 -157 0
1 -237 160 0
1 237 150 0
1 -137 158 0
1 137 -239 0
1 155 -240 0
1 155 -81 0
1 -155 -241 0
1 -240 235 0
1 -240 242 0
1 -240 -143 0
1 -240 -152 0
1 -176 153 0
1 -176 174 0
1 -176 243 0
1 176 -81 0
1 174 242 0
1 -174 244 0
1 242 245 0
1 242 166 0
1 -242 246 0
1 247 -166 0
1 -247 -174 0
1 247 -157 0
1 -247 155 0
1 -247 -248 0
1 148 -249 0
1 -241 250 0
1 -241 -236 0
1 -171 251 0
1 171 252 0
1 -171 -153 0
1 -171 -81 0
1 -171 -163 0
1 -166 -251 0
1 166 244 0
1 -166 247 0
1 253 -162 0
1 253 244 0
1 253 243 0
1 -253 254 0
1 245 -252 0
1 -245 -162 0
1 245 255 0
1 243 -256 0
1 -243 180 0
1 -243 257 0
1 -243 -152 0
1 252 -258 0
1 -252 -174 0
1 -252 243 0
1 244 -259 0
1 -244 -260 0
1 -244 -174 0
1 -244 143 0
1 244 -261 0
1 -244 -253 0
1 179 252 0
1 180 164 0
1 262 175 0
1 262 -263 0
1 -262 178 0
1 264 254 0
1 254 -265 0
1 -254 266 0
1 -169 -180 0
1 169 -254 0
1 255 -257 0
1 -255 253 0
1 -255 -266 0
1 -175 -153 0
1 -175 -245 0
1 -175 253 0
1 -265 -267 0
1 265 -268 0
1 -265 -269 0
1 267 -169 0
1 267 -254 0
1 267 -268 0
1 -270 178 0
1 -270 -271 0
1 272 178 0
1 -269 -273 0
1 -178 274 0
1 -178 275 0
1 -268 274 0
1 -268 -267 0
1 -263 274 0
1 -263 -275 0
1 263 -266 0
1 263 -268 0
1 -263 -267 0
1 -276 -277 0
1 -278 -183 0
1 -278 -279 0
1 186 -280 0
1 -186 281 0
1 -186 -282 0
1 283 284 0
1 -283 -285 0
1 -283 282 0
1 -284 -186 0
1 -279 186 0
1 -281 276 0
1 194 284 0
1 194 279 0
1 286 287 0
1 -286 -288 0
1 -286 -279 0
1 286 -282 0
1 -288 -289 0
1 -288 282 0
1 -288 182 0
1 -287 -194 0
1 287 -286 0
1 -287 186 0
1 -282 -288 0
1 282 -290 0
1 -280 283 0
1 280 285 0
1 -280 186 0
1 285 -291 0
1 -190 -289 0
1 -190 292 0
1 -190 199 0
1 190 282 0
1 -190 -192 0
1 -200 -199 0
1 -202 289 0
1 -202 293 0
1 294 -292 0
1 -292 288 0
1 292 -295 0
1 292 210 0
1 292 201 0
1 292 202 0
1 -292 296 0
1 297 294 0
1 -297 286 0
1 289 298 0
1 -289 -299 0
1 299 -294 0
1 -201 -209 0
1 201 300 0
1 -201 -301 0
1 -201 297 0
1 -198 116 0
1 198 -292 0
1 198 -300 0
1 198 -301 0
1 -210 302 0
1 -210 300 0
1 303 -302 0
1 -303 -301 0
1 303 304 0
1 -303 -305 0
1 -301 198 0
1 301 -206 0
1 -301 -210 0
1 301 293 0
1 293 198 0
1 -293 -306 0
1 293 307 0
1 -300 210 0
1 -300 -296 0
1 -308 303 0
1 308 300 0
1 206 -304 0
1 -206 -208 0
1 -206 -205 0
1 -206 216 0
1 309 209 0
1 309 304 0
1 -309 216 0
1 218 -310 0
1 218 307 0
1 -307 310 0
1 307 311 0
1 307 312 0
1 307 -216 0
1 305 215 0
1 302 313 0
1 302 309 0
1 302 193 0
1 -304 306 0
1 -304 314 0
1 -315 -303 0
1 -315 306 0
1 -315 218 0
1 315 206 0
1 315 304 0
1 -315 210 0
1 -315 313 0
1 225 -305 0
1 -225 -219 0
1 -215 302 0
1 -215 310 0
1 215 211 0
1 215 125 0
1 316 -302 0
1 -316 -317 0
1 -318 -305 0
1 -318 -312 0
1 -318 314 0
1 318 -219 0
1 207 -319 0
1 207 -221 0
1 -207 222 0
1 311 230 0
1 -311 225 0
1 312 -320 0
1 -312 -316 0
1 -312 -208 0
1 -310 -321 0
1 310 -225 0
1 -221 -311 0
1 -221 322 0
1 -222 213 0
1 -222 323 0
1 -230 311 0
1 230 -317 0
1 324 -311 0
1 324 223 0
1 -324 -325 0
1 324 207 0
1 -324 -323 0
1 324 -117 0
1 322 -227 0
1 -322 -228 0
1 -322 -324 0
1 -317 -326 0
1 -317 -327 0
1 323 -319 0
1 -323 -230 0
1 -323 -327 0
1 323 328 0
1 329 -316 0
1 329 328 0
1 -227 -158 0
1 -227 -319 0
1 227 126 0
1 228 -227 0
1 -228 317 0
1 228 -160 0
1 -228 330 0
1 -228 -117 0
1 -326 331 0
1 -326 -332 0
1 -326 232 0
1 -326 236 0
1 331 -126 0
1 -331 -317 0
1 331 -223 0
1 -331 332 0
1 -333 326 0
1 333 -227 0
1 -333 235 0
1 333 331 0
1 -223 326 0
1 -223 -324 0
1 -223 -239 0
1 -223 -333 0
1 330 326 0
1 330 -334 0
1 330 -335 0
1 -336 -337 0
1 -235 -237 0
1 -235 240 0
1 235 -232 0
1 -235 231 0
1 239 -338 0
1 -239 237 0
1 239 238 0
1 -239 -339 0
1 239 -340 0
1 -239 -337 0
1 -239 -333 0
1 -238 -237 0
1 -238 340 0
1 238 333 0
1 341 -342 0
1 341 235 0
1 -341 -339 0
1 339 -115 0
1 339 343 0
1 -344 345 0
1 -332 346 0
1 -332 -229 0
1 347 342 0
1 -347 340 0
1 347 -348 0
1 347 -171 0
1 -342 349 0
1 -342 340 0
1 -342 -241 0
1 343 338 0
1 250 346 0
1 350 250 0
1 350 351 0
1 350 347 0
1 350 -239 0
1 -348 352 0
1 338 -347 0
1 340 238 0
1 340 -347 0
1 -246 -251 0
1 -246 -353 0
1 -246 354 0
1 -246 -355 0
1 -260 355 0
1 351 259 0
1 -351 -262 0
1 259 -264 0
1 259 353 0
1 -259 356 0
1 -357 -260 0
1 -357 -250 0
1 357 -358 0
1 357 -359 0
1 355 351 0
1 -353 -259 0
1 -353 250 0
1 353 360 0
1 -353 -361 0
1 361 -259 0
1 -361 -250 0
1 361 -362 0
1 361 363 0
1 -361 -137 0
1 -257 -249 0
1 -257 -356 0
1 257 244 0
1 -257 362 0
1 256 364 0
1 256 175 0
1 256 -257 0
1 -271 355 0
1 271 357 0
1 -271 249 0
1 -271 -356 0
1 365 366 0
1 -356 -256 0
1 -356 -259 0
1 -356 367 0
1 -356 -248 0
1 248 -368 0
1 248 -369 0
1 248 271 0
1 248 -370 0
1 249 371 0
1 -249 -257 0
1 249 372 0
1 249 359 0
1 373 -259 0
1 -373 368 0
1 373 -374 0
1 -375 -358 0
1 -375 -356 0
1 -375 -266 0
1 266 -175 0
1 266 169 0
1 266 263 0
1 266 356 0
1 266 366 0
1 -369 -258 0
1 369 -268 0
1 -367 -258 0
1 -367 366 0
1 366 -258 0
1 -366 -243 0
1 366 376 0
1 -366 266 0
1 258 -377 0
1 258 -376 0
1 261 -378 0
1 261 369 0
1 379 380 0
1 -379 368 0
1 274 258 0
1 -274 -381 0
1 -275 -258 0
1 -275 381 0
1 -275 263 0
1 -382 383 0
1 -382 -384 0
1 -376 -383 0
1 376 -385 0
1 386 382 0
1 386 -169 0
1 -387 378 0
1 387 -274 0
1 -387 377 0
1 -387 -275 0
1 381 -388 0
1 381 175 0
1 381 -382 0
1 -381 -389 0
1 381 -275 0
1 -390 378 0
1 390 386 0
1 390 391 0
1 392 -393 0
1 392 -383 0
1 -392 -384 0
1 -273 391 0
1 -383 394 0
1 -383 391 0
1 -384 -382 0
1 384 -394 0
1 393 390 0
1 393 -263 0
1 393 394 0
1 -291 280 0
1 -291 -395 0
1 -291 396 0
1 291 201 0
1 -291 -299 0
1 -291 -397 0
1 -398 -198 0
1 398 289 0
1 -398 -396 0
1 -399 400 0
1 399 289 0
1 -399 -396 0
1 401 -402 0
1 401 289 0
1 -402 -403 0
1 396 404 0
1 -395 398 0
1 -395 399 0
1 296 402 0
1 296 -292 0
1 296 404 0
1 -296 308 0
1 403 400 0
1 403 -295 0
1 -405 300 0
1 -405 396 0
1 405 -406 0
1 405 407 0
1 -405 408 0
1 -405 -409 0
1 -405 -308 0
1 -410 407 0
1 -410 -411 0
1 -410 -412 0
1 410 -296 0
1 407 410 0
1 406 399 0
1 406 -296 0
1 306 -410 0
1 306 -298 0
1 306 304 0
1 306 408 0
1 306 -412 0
1 -412 410 0
1 412 295 0
1 412 -408 0
1 412 215 0
1 -412 315 0
1 413 -298 0
1 413 -407 0
1 413 408 0
1 314 -410 0
1 314 -413 0
1 -314 -407 0
1 -314 408 0
1 -314 -414 0
1 314 -415 0
1 -295 -416 0
1 -295 320 0
1 -295 -412 0
1 -409 -417 0
1 -298 306 0
1 -298 -418 0
1 -298 412 0
1 298 405 0
1 -408 -298 0
1 408 413 0
1 408 -314 0
1 320 -302 0
1 320 304 0
1 313 -302 0
1 313 312 0
1 -313 -414 0
1 313 415 0
1 -419 -420 0
1 419 310 0
1 419 -295 0
1 325 -310 0
1 325 -295 0
1 -325 -324 0
1 325 -415 0
1 421 -422 0
1 421 -314 0
1 415 319 0
1 -415 -421 0
1 415 -423 0
1 424 -425 0
1 -424 -416 0
1 -424 -419 0
1 424 -426 0
1 -424 417 0
1 -424 -313 0
1 414 -425 0
1 -414 427 0
1 -414 325 0
1 319 323 0
1 -428 421 0
1 428 429 0
1 -428 -312 0
1 428 415 0
1 428 -430 0
1 431 -326 0
1 431 -420 0
1 431 -427 0
1 -431 -323 0
1 -423 421 0
1 -423 -426 0
1 423 323 0
1 423 415 0
1 429 -419 0
1 429 -432 0
1 429 433 0
1 429 -423 0
1 -429 434 0
1 429 -337 0
1 -420 -429 0
1 435 -425 0
1 435 436 0
1 430 419 0
1 328 -321 0
1 -328 -329 0
1 328 -317 0
1 328 336 0
1 328 330 0
1 -327 -321 0
1 327 329 0
1 327 429 0
1 327 -323 0
1 -337 -437 0
1 -337 438 0
1 -433 336 0
1 433 -330 0
1 439 -433 0
1 440 441 0
1 440 -442 0
1 -321 431 0
1 -321 443 0
1 -321 432 0
1 -335 -349 0
1 335 -332 0
1 -335 -442 0
1 335 333 0
1 -349 437 0
1 349 -444 0
1 -349 438 0
1 -445 -438 0
1 445 -446 0
1 346 437 0
1 346 443 0
1 346 -332 0
1 -346 447 0
1 448 345 0
1 448 354 0
1 448 -335 0
1 438 -345 0
1 438 -317 0
1 -438 -449 0
1 447 -450 0
1 -447 -451 0
1 447 -449 0
1 -444 451 0
1 -444 346 0
1 -444 452 0
1 -444 453 0
1 444 -335 0
1 444 337 0
1 354 -454 0
1 345 -344 0
1 -345 332 0
1 -345 340 0
1 455 456 0
1 -457 -340 0
1 -457 334 0
1 456 458 0
1 -456 457 0
1 -456 345 0
1 456 -455 0
1 -459 346 0
1 -459 460 0
1 334 -449 0
1 -334 -455 0
1 -334 330 0
1 -454 -457 0
1 -454 345 0
1 -454 -449 0
1 -362 461 0
1 362 462 0
1 -362 338 0
1 362 350 0
1 362 -449 0
1 -364 -256 0
1 -364 -362 0
1 -360 461 0
1 -360 462 0
1 -360 -463 0
1 -464 465 0
1 464 466 0
1 464 361 0
1 -462 -467 0
1 462 -358 0
1 -462 362 0
1 465 -457 0
1 -465 462 0
1 465 -467 0
1 461 468 0
1 -469 332 0
1 -469 -360 0
1 469 468 0
1 469 -464 0
1 358 -357 0
1 -358 375 0
1 -358 -470 0
1 -359 462 0
1 359 -471 0
1 359 -249 0
1 -359 -466 0
1 359 -352 0
1 359 -460 0
1 374 -472 0
1 -374 -465 0
1 -374 466 0
1 -372 -363 0
1 -372 -374 0
1 -372 -465 0
1 372 352 0
1 463 -473 0
1 463 380 0
1 -463 -474 0
1 -463 -385 0
1 -352 -368 0
1 352 360 0
1 352 -359 0
1 -471 -467 0
1 -466 -358 0
1 466 -340 0
1 466 -359 0
1 -368 475 0
1 -368 -249 0
1 380 379 0
1 -380 -371 0
1 380 -363 0
1 -380 -476 0
1 385 -463 0
1 -385 -371 0
1 475 378 0
1 475 372 0
1 477 -385 0
1 -478 374 0
1 -478 474 0
1 -478 -385 0
1 -478 372 0
1 -363 -473 0
1 -378 258 0
1 378 -475 0
1 -377 -379 0
1 -377 -381 0
1 -377 479 0
1 377 -261 0
1 -388 -371 0
1 389 381 0
1 389 394 0
1 479 385 0
1 371 389 0
1 371 -385 0
1 480 388 0
1 480 378 0
1 -481 -482 0
1 -481 -410 0
1 411 -406 0
1 -411 -408 0
1 -483 -484 0
1 483 -485 0
1 -418 482 0
1 -418 298 0
1 -486 -402 0
1 -486 487 0
1 486 483 0
1 -486 -417 0
1 482 488 0
1 -482 -411 0
1 482 -397 0
1 -488 -489 0
1 416 -424 0
1 416 485 0
1 416 -414 0
1 427 484 0
1 -427 485 0
1 427 -490 0
1 427 414 0
1 426 491 0
1 426 -484 0
1 -491 416 0
1 491 410 0
1 -491 483 0
1 491 -426 0
1 491 -417 0
1 -491 -485 0
1 -491 492 0
1 485 483 0
1 -485 -426 0
1 493 427 0
1 493 416 0
1 -493 426 0
1 494 -427 0
1 494 -495 0
1 -494 418 0
1 -494 -492 0
1 -425 496 0
1 -425 421 0
1 -425 436 0
1 -436 490 0
1 -436 497 0
1 -498 499 0
1 498 496 0
1 -498 500 0
1 -498 -485 0
1 -498 497 0
1 -498 -501 0
1 -496 427 0
1 -496 432 0
1 496 -502 0
1 -496 -497 0
1 -499 -298 0
1 499 -495 0
1 499 -426 0
1 -499 -492 0
1 490 -425 0
1 490 -427 0
1 490 436 0
1 490 503 0
1 -490 -504 0
1 -442 -422 0
1 -442 501 0
1 -432 -321 0
1 432 349 0
1 -432 496 0
1 -432 497 0
1 446 500 0
1 446 422 0
1 446 -497 0
1 -443 -505 0
1 -443 -321 0
1 -443 -440 0
1 443 -501 0
1 -422 -443 0
1 -422 501 0
1 -422 -506 0
1 501 507 0
1 501 451 0
1 501 446 0
1 501 498 0
1 501 508 0
1 -500 -509 0
1 -500 510 0
1 -500 -506 0
1 500 -511 0
1 -500 446 0
1 512 513 0
1 512 514 0
1 -512 -442 0
1 -441 444 0
1 -441 -422 0
1 -441 -354 0
1 -451 -345 0
1 451 -444 0
1 -453 -515 0
1 453 -505 0
1 -453 444 0
1 453 -422 0
1 507 515 0
1 507 422 0
1 -507 516 0
1 -507 434 0
1 507 517 0
1 434 441 0
1 505 -434 0
1 -505 -518 0
1 516 -519 0
1 516 509 0
1 -516 -443 0
1 -515 520 0
1 -515 -446 0
1 -449 447 0
1 -449 448 0
1 -450 -509 0
1 450 521 0
1 450 -444 0
1 450 449 0
1 450 522 0
1 -450 447 0
1 -523 -524 0
1 523 -505 0
1 523 -525 0
1 -523 434 0
1 524 -526 0
1 524 -527 0
1 -524 -523 0
1 524 464 0
1 -517 524 0
1 517 472 0
1 517 -449 0
1 -517 439 0
1 521 524 0
1 521 470 0
1 521 449 0
1 522 526 0
1 -522 -440 0
1 522 528 0
1 522 -529 0
1 -526 -530 0
1 526 523 0
1 470 461 0
1 -470 -454 0
1 -470 460 0
1 -460 461 0
1 460 469 0
1 472 461 0
1 -472 531 0
1 -472 -532 0
1 468 458 0
1 -468 461 0
1 -468 -469 0
1 -532 470 0
1 532 523 0
1 527 -524 0
1 527 533 0
1 527 -534 0
1 527 468 0
1 535 -536 0
1 -535 472 0
1 452 524 0
1 452 -472 0
1 -452 -523 0
1 -452 -460 0
1 -467 -537 0
1 -538 462 0
1 -538 -531 0
1 538 -466 0
1 539 537 0
1 -534 -540 0
1 534 471 0
1 -534 541 0
1 -458 474 0
1 458 456 0
1 -542 534 0
1 -537 -539 0
1 -537 468 0
1 -473 543 0
1 473 542 0
1 473 466 0
1 -473 -352 0
1 -474 -540 0
1 -474 473 0
1 474 463 0
1 -474 541 0
1 -474 377 0
1 474 -466 0
1 -474 363 0
1 544 363 0
1 545 363 0
1 541 -540 0
1 -541 -539 0
1 543 -544 0
1 543 534 0
1 492 493 0
1 -492 442 0
1 -495 490 0
1 -504 -546 0
1 -504 -489 0
1 504 -547 0
1 504 -490 0
1 548 -443 0
1 548 -549 0
1 548 -504 0
1 487 550 0
1 551 487 0
1 -551 -548 0
1 551 -495 0
1 -551 484 0
1 -551 514 0
1 551 -503 0
1 -552 -482 0
1 -552 -492 0
1 -489 504 0
1 -503 -553 0
1 -503 -496 0
1 503 546 0
1 -554 -451 0
1 554 -547 0
1 -554 549 0
1 554 490 0
1 -514 555 0
1 510 -487 0
1 -510 507 0
1 -510 -553 0
1 -510 556 0
1 546 -557 0
1 546 -514 0
1 -546 -503 0
1 -549 513 0
1 -553 558 0
1 547 -494 0
1 -547 -559 0
1 509 -502 0
1 509 500 0
1 -509 422 0
1 -509 516 0
1 -525 546 0
1 -525 555 0
1 -525 549 0
1 -525 556 0
1 519 524 0
1 -519 515 0
1 519 560 0
1 -519 -516 0
1 -502 561 0
1 -502 525 0
1 -502 562 0
1 502 -529 0
1 -563 -519 0
1 -563 -510 0
1 563 -564 0
1 563 518 0
1 555 -565 0
1 -555 525 0
1 -555 -556 0
1 556 513 0
1 556 566 0
1 -520 567 0
1 520 -516 0
1 520 522 0
1 -520 563 0
1 -520 568 0
1 -518 -568 0
1 -518 520 0
1 518 569 0
1 -570 502 0
1 -570 511 0
1 570 529 0
1 -529 571 0
1 -529 526 0
1 -529 568 0
1 529 -570 0
1 529 511 0
1 -529 -572 0
1 560 -570 0
1 560 -573 0
1 -508 -529 0
1 511 -574 0
1 511 570 0
1 511 573 0
1 -511 575 0
1 568 519 0
1 -568 520 0
1 -568 -573 0
1 568 575 0
1 -536 -571 0
1 536 -560 0
1 536 -522 0
1 536 535 0
1 576 -572 0
1 -577 -578 0
1 577 -539 0
1 577 -579 0
1 577 -572 0
1 -580 -581 0
1 -580 528 0
1 -581 434 0
1 -578 582 0
1 578 580 0
1 -578 576 0
1 -572 574 0
1 -572 -573 0
1 571 -515 0
1 571 577 0
1 571 529 0
1 -582 581 0
1 582 583 0
1 -582 537 0
1 533 582 0
1 -533 -579 0
1 533 -527 0
1 -533 -474 0
1 584 -530 0
1 -584 -531 0
1 -584 -537 0
1 585 -584 0
1 -585 545 0
1 583 582 0
1 583 -585 0
1 -583 533 0
1 579 -582 0
1 528 -584 0
1 528 530 0
1 -528 -522 0
1 528 533 0
1 -530 -526 0
1 -530 584 0
1 567 586 0
1 -569 -586 0
1 -569 -549 0
1 587 588 0
1 -587 550 0
1 587 -589 0
1 589 588 0
1 -589 557 0
1 -589 -529 0
1 586 590 0
1 -586 -565 0
1 -586 587 0
1 586 -562 0
1 -588 552 0
1 -588 569 0
1 591 589 0
1 565 -557 0
1 565 -562 0
1 -562 558 0
1 -562 576 0
1 590 -586 0
1 -590 -568 0
1 -575 -592 0
1 557 592 0
1 557 -587 0
1 -557 589 0
1 592 557 0
1 592 593 0
1 558 590 0
1 558 -587 0
1 558 -559 0
1 559 -587 0
1 574 -571 0
1 -574 592 0
1 574 -561 0
1 -574 511 0
1 574 568 0
1 574 508 0
1 573 533 0
1 -594 -561 0
1 593 -595 0
1 -593 561 0
1 561 -590 0
1 -561 502 0
1 561 -564 0
1 595 574 0
1 -595 -575 0
1 566 -590 0
